50
    1   214   204
    2   456   446
    3   458   448
    4   329   319
    5   164   154
    6   430   420
    7   373   363
    8   310   300
    9   438   428
   10   416   406
   11   304   294
   12   451   441
   13   311   301
   14    80    70
   15   118   108
   16    70    60
   17   279   269
   18   305   295
   19    80    70
   20    93    83
   21    18     8
   22   105    95
   23   193   183
   24   205   195
   25   206   196
   26   473   463
   27   126   116
   28   252   242
   29    71    61
   30   181   171
   31   311   301
   32   362   352
   33   491   481
   34   368   358
   35   406   396
   36   192   182
   37   507   497
   38   397   387
   39   468   458
   40   116   106
   41   247   237
   42   480   470
   43   354   344
   44   465   455
   45   166   156
   46    62    52
   47   341   331
   48   274   264
   49   475   465
   50   503   493
4664
